[ti. 04. april 14:09:32 +0200 2023]  ./input/alternate_g_np/50-3-1.gcc
Set parameter Username
Academic license - for non-commercial use only - expires 2024-03-28
Set parameter TimeLimit to value 1800
Set parameter PreCrush to value 1
Set parameter LazyConstraints to value 1
Gurobi Optimizer version 10.0.1 build v10.0.1rc0 (linux64)

CPU model: AMD Ryzen 9 5950X 16-Core Processor, instruction set [SSE2|AVX|AVX2]
Thread count: 16 physical cores, 32 logical processors, using up to 32 threads

Optimize a model with 59 rows, 500 columns and 1400 nonzeros
Model fingerprint: 0x222e5253
Variable types: 0 continuous, 500 integer (500 binary)
Coefficient statistics:
  Matrix range     [1e+00, 1e+00]
  Objective range  [7e+00, 1e+02]
  Bounds range     [1e+00, 1e+00]
  RHS range        [1e+00, 1e+00]
Presolve time: 0.00s
Presolved: 59 rows, 500 columns, 1400 nonzeros
Variable types: 0 continuous, 500 integer (500 binary)

Root relaxation: objective 2.568000e+03, 9 iterations, 0.00 seconds (0.00 work units)

    Nodes    |    Current Node    |     Objective Bounds      |     Work
 Expl Unexpl |  Obj  Depth IntInf | Incumbent    BestBd   Gap | It/Node Time

     0     0 2568.00000    0    9          - 2568.00000      -     -    0s
     0     0 2568.00000    0    -          - 2568.00000      -     -    0s
     0     0 2568.00000    0    -          - 2568.00000      -     -    0s
     0     0 2568.00000    0    9          - 2568.00000      -     -    0s
     0     0 2454.00000    0    6          - 2454.00000      -     -    0s
     0     0 2408.33333    0   32          - 2408.33333      -     -    0s
     0     0 2399.00000    0   28          - 2399.00000      -     -    0s
     0     0 2399.00000    0   26          - 2399.00000      -     -    0s
     0     0 2399.00000    0   49          - 2399.00000      -     -    0s
     0     0 2399.00000    0   21          - 2399.00000      -     -    0s
     0     2 2399.00000    0    4          - 2399.00000      -     -    0s
*  258   278              13     863.0000000 2367.54543   174%   204    0s
H 1184   989                     885.0000000 2337.74493   164%  95.8    0s
H 1719  1420                     958.0000000 2337.74493   144%  84.4    1s
H 1720  1420                    1349.0000472 2337.74493  73.3%  84.4    1s
H 1750  1428                    1361.0000316 2337.74493  71.8%  83.5    1s
H 2106  1623                    2568.0000316 2568.00003  0.00%  78.9    1s

Cutting planes:
  Lazy constraints: 1

Explored 2106 nodes (167392 simplex iterations) in 1.85 seconds (3.67 work units)
Thread count was 32 (of 32 available processors)

Solution count 6: 2568 1361 1349 ... 863

Optimal solution found (tolerance 1.00e-04)
Best objective 2.568000031581e+03, best bound 2.568000031581e+03, gap 0.0000%

User-callback calls 4842, time in user-callback 0.19 sec
Minimal separator inequalities added: 2186
Indegree inequalities added: 16872
WRONG SOLUTION
[ti. 04. april 14:09:34 +0200 2023]  done

